NAME : P = NP
TYPE : TSP
DIMENSION : 63
EDGE_WEIGHT_TYPE : EUC_2D
NODE_COORD_SECTION
0 17 925
1 329 58
2 5 70
3 393 367
4 72 116
5 305 10
6 13 385
7 344 6
8 53 382
9 26 48
10 182 192
11 214 134
12 601 66
13 42 9
14 185 28
15 520 120
16 613 55
17 1 157
18 803 353
19 78 142
20 62 498
21 41 189
22 209 34
23 76 18
24 323 275
25 81 63
26 387 343
27 52 126
28 15 735
29 362 73
30 44 3
31 91 168
32 324 422
33 419 661
34 220 25
35 389 118
36 205 32
37 394 648
38 6 140
39 226 663
40 414 638
41 34 409
42 20 522
43 412 217
44 571 674
45 46 689
46 673 134
47 55 80
48 28 2
49 211 1
50 92 406
51 61 504
52 93 96
53 171 689
54 82 2
55 579 332
56 280 194
57 201 697
58 334 451
59 63 52
60 141 292
61 5 182
62 340 599